c created by edge2cnf
p cnf 500 3100
-1 -2 0
-1 -3 0
-1 -4 0
-1 -5 0
-2 -3 0
-2 -4 0
-2 -5 0
-3 -4 0
-3 -5 0
-4 -5 0
1 2 3 4 5 0
-6 -7 0
-6 -8 0
-6 -9 0
-6 -10 0
-7 -8 0
-7 -9 0
-7 -10 0
-8 -9 0
-8 -10 0
-9 -10 0
6 7 8 9 10 0
-11 -12 0
-11 -13 0
-11 -14 0
-11 -15 0
-12 -13 0
-12 -14 0
-12 -15 0
-13 -14 0
-13 -15 0
-14 -15 0
11 12 13 14 15 0
-16 -17 0
-16 -18 0
-16 -19 0
-16 -20 0
-17 -18 0
-17 -19 0
-17 -20 0
-18 -19 0
-18 -20 0
-19 -20 0
16 17 18 19 20 0
-21 -22 0
-21 -23 0
-21 -24 0
-21 -25 0
-22 -23 0
-22 -24 0
-22 -25 0
-23 -24 0
-23 -25 0
-24 -25 0
21 22 23 24 25 0
-26 -27 0
-26 -28 0
-26 -29 0
-26 -30 0
-27 -28 0
-27 -29 0
-27 -30 0
-28 -29 0
-28 -30 0
-29 -30 0
26 27 28 29 30 0
-31 -32 0
-31 -33 0
-31 -34 0
-31 -35 0
-32 -33 0
-32 -34 0
-32 -35 0
-33 -34 0
-33 -35 0
-34 -35 0
31 32 33 34 35 0
-36 -37 0
-36 -38 0
-36 -39 0
-36 -40 0
-37 -38 0
-37 -39 0
-37 -40 0
-38 -39 0
-38 -40 0
-39 -40 0
36 37 38 39 40 0
-41 -42 0
-41 -43 0
-41 -44 0
-41 -45 0
-42 -43 0
-42 -44 0
-42 -45 0
-43 -44 0
-43 -45 0
-44 -45 0
41 42 43 44 45 0
-46 -47 0
-46 -48 0
-46 -49 0
-46 -50 0
-47 -48 0
-47 -49 0
-47 -50 0
-48 -49 0
-48 -50 0
-49 -50 0
46 47 48 49 50 0
-51 -52 0
-51 -53 0
-51 -54 0
-51 -55 0
-52 -53 0
-52 -54 0
-52 -55 0
-53 -54 0
-53 -55 0
-54 -55 0
51 52 53 54 55 0
-56 -57 0
-56 -58 0
-56 -59 0
-56 -60 0
-57 -58 0
-57 -59 0
-57 -60 0
-58 -59 0
-58 -60 0
-59 -60 0
56 57 58 59 60 0
-61 -62 0
-61 -63 0
-61 -64 0
-61 -65 0
-62 -63 0
-62 -64 0
-62 -65 0
-63 -64 0
-63 -65 0
-64 -65 0
61 62 63 64 65 0
-66 -67 0
-66 -68 0
-66 -69 0
-66 -70 0
-67 -68 0
-67 -69 0
-67 -70 0
-68 -69 0
-68 -70 0
-69 -70 0
66 67 68 69 70 0
-71 -72 0
-71 -73 0
-71 -74 0
-71 -75 0
-72 -73 0
-72 -74 0
-72 -75 0
-73 -74 0
-73 -75 0
-74 -75 0
71 72 73 74 75 0
-76 -77 0
-76 -78 0
-76 -79 0
-76 -80 0
-77 -78 0
-77 -79 0
-77 -80 0
-78 -79 0
-78 -80 0
-79 -80 0
76 77 78 79 80 0
-81 -82 0
-81 -83 0
-81 -84 0
-81 -85 0
-82 -83 0
-82 -84 0
-82 -85 0
-83 -84 0
-83 -85 0
-84 -85 0
81 82 83 84 85 0
-86 -87 0
-86 -88 0
-86 -89 0
-86 -90 0
-87 -88 0
-87 -89 0
-87 -90 0
-88 -89 0
-88 -90 0
-89 -90 0
86 87 88 89 90 0
-91 -92 0
-91 -93 0
-91 -94 0
-91 -95 0
-92 -93 0
-92 -94 0
-92 -95 0
-93 -94 0
-93 -95 0
-94 -95 0
91 92 93 94 95 0
-96 -97 0
-96 -98 0
-96 -99 0
-96 -100 0
-97 -98 0
-97 -99 0
-97 -100 0
-98 -99 0
-98 -100 0
-99 -100 0
96 97 98 99 100 0
-101 -102 0
-101 -103 0
-101 -104 0
-101 -105 0
-102 -103 0
-102 -104 0
-102 -105 0
-103 -104 0
-103 -105 0
-104 -105 0
101 102 103 104 105 0
-106 -107 0
-106 -108 0
-106 -109 0
-106 -110 0
-107 -108 0
-107 -109 0
-107 -110 0
-108 -109 0
-108 -110 0
-109 -110 0
106 107 108 109 110 0
-111 -112 0
-111 -113 0
-111 -114 0
-111 -115 0
-112 -113 0
-112 -114 0
-112 -115 0
-113 -114 0
-113 -115 0
-114 -115 0
111 112 113 114 115 0
-116 -117 0
-116 -118 0
-116 -119 0
-116 -120 0
-117 -118 0
-117 -119 0
-117 -120 0
-118 -119 0
-118 -120 0
-119 -120 0
116 117 118 119 120 0
-121 -122 0
-121 -123 0
-121 -124 0
-121 -125 0
-122 -123 0
-122 -124 0
-122 -125 0
-123 -124 0
-123 -125 0
-124 -125 0
121 122 123 124 125 0
-126 -127 0
-126 -128 0
-126 -129 0
-126 -130 0
-127 -128 0
-127 -129 0
-127 -130 0
-128 -129 0
-128 -130 0
-129 -130 0
126 127 128 129 130 0
-131 -132 0
-131 -133 0
-131 -134 0
-131 -135 0
-132 -133 0
-132 -134 0
-132 -135 0
-133 -134 0
-133 -135 0
-134 -135 0
131 132 133 134 135 0
-136 -137 0
-136 -138 0
-136 -139 0
-136 -140 0
-137 -138 0
-137 -139 0
-137 -140 0
-138 -139 0
-138 -140 0
-139 -140 0
136 137 138 139 140 0
-141 -142 0
-141 -143 0
-141 -144 0
-141 -145 0
-142 -143 0
-142 -144 0
-142 -145 0
-143 -144 0
-143 -145 0
-144 -145 0
141 142 143 144 145 0
-146 -147 0
-146 -148 0
-146 -149 0
-146 -150 0
-147 -148 0
-147 -149 0
-147 -150 0
-148 -149 0
-148 -150 0
-149 -150 0
146 147 148 149 150 0
-151 -152 0
-151 -153 0
-151 -154 0
-151 -155 0
-152 -153 0
-152 -154 0
-152 -155 0
-153 -154 0
-153 -155 0
-154 -155 0
151 152 153 154 155 0
-156 -157 0
-156 -158 0
-156 -159 0
-156 -160 0
-157 -158 0
-157 -159 0
-157 -160 0
-158 -159 0
-158 -160 0
-159 -160 0
156 157 158 159 160 0
-161 -162 0
-161 -163 0
-161 -164 0
-161 -165 0
-162 -163 0
-162 -164 0
-162 -165 0
-163 -164 0
-163 -165 0
-164 -165 0
161 162 163 164 165 0
-166 -167 0
-166 -168 0
-166 -169 0
-166 -170 0
-167 -168 0
-167 -169 0
-167 -170 0
-168 -169 0
-168 -170 0
-169 -170 0
166 167 168 169 170 0
-171 -172 0
-171 -173 0
-171 -174 0
-171 -175 0
-172 -173 0
-172 -174 0
-172 -175 0
-173 -174 0
-173 -175 0
-174 -175 0
171 172 173 174 175 0
-176 -177 0
-176 -178 0
-176 -179 0
-176 -180 0
-177 -178 0
-177 -179 0
-177 -180 0
-178 -179 0
-178 -180 0
-179 -180 0
176 177 178 179 180 0
-181 -182 0
-181 -183 0
-181 -184 0
-181 -185 0
-182 -183 0
-182 -184 0
-182 -185 0
-183 -184 0
-183 -185 0
-184 -185 0
181 182 183 184 185 0
-186 -187 0
-186 -188 0
-186 -189 0
-186 -190 0
-187 -188 0
-187 -189 0
-187 -190 0
-188 -189 0
-188 -190 0
-189 -190 0
186 187 188 189 190 0
-191 -192 0
-191 -193 0
-191 -194 0
-191 -195 0
-192 -193 0
-192 -194 0
-192 -195 0
-193 -194 0
-193 -195 0
-194 -195 0
191 192 193 194 195 0
-196 -197 0
-196 -198 0
-196 -199 0
-196 -200 0
-197 -198 0
-197 -199 0
-197 -200 0
-198 -199 0
-198 -200 0
-199 -200 0
196 197 198 199 200 0
-201 -202 0
-201 -203 0
-201 -204 0
-201 -205 0
-202 -203 0
-202 -204 0
-202 -205 0
-203 -204 0
-203 -205 0
-204 -205 0
201 202 203 204 205 0
-206 -207 0
-206 -208 0
-206 -209 0
-206 -210 0
-207 -208 0
-207 -209 0
-207 -210 0
-208 -209 0
-208 -210 0
-209 -210 0
206 207 208 209 210 0
-211 -212 0
-211 -213 0
-211 -214 0
-211 -215 0
-212 -213 0
-212 -214 0
-212 -215 0
-213 -214 0
-213 -215 0
-214 -215 0
211 212 213 214 215 0
-216 -217 0
-216 -218 0
-216 -219 0
-216 -220 0
-217 -218 0
-217 -219 0
-217 -220 0
-218 -219 0
-218 -220 0
-219 -220 0
216 217 218 219 220 0
-221 -222 0
-221 -223 0
-221 -224 0
-221 -225 0
-222 -223 0
-222 -224 0
-222 -225 0
-223 -224 0
-223 -225 0
-224 -225 0
221 222 223 224 225 0
-226 -227 0
-226 -228 0
-226 -229 0
-226 -230 0
-227 -228 0
-227 -229 0
-227 -230 0
-228 -229 0
-228 -230 0
-229 -230 0
226 227 228 229 230 0
-231 -232 0
-231 -233 0
-231 -234 0
-231 -235 0
-232 -233 0
-232 -234 0
-232 -235 0
-233 -234 0
-233 -235 0
-234 -235 0
231 232 233 234 235 0
-236 -237 0
-236 -238 0
-236 -239 0
-236 -240 0
-237 -238 0
-237 -239 0
-237 -240 0
-238 -239 0
-238 -240 0
-239 -240 0
236 237 238 239 240 0
-241 -242 0
-241 -243 0
-241 -244 0
-241 -245 0
-242 -243 0
-242 -244 0
-242 -245 0
-243 -244 0
-243 -245 0
-244 -245 0
241 242 243 244 245 0
-246 -247 0
-246 -248 0
-246 -249 0
-246 -250 0
-247 -248 0
-247 -249 0
-247 -250 0
-248 -249 0
-248 -250 0
-249 -250 0
246 247 248 249 250 0
-251 -252 0
-251 -253 0
-251 -254 0
-251 -255 0
-252 -253 0
-252 -254 0
-252 -255 0
-253 -254 0
-253 -255 0
-254 -255 0
251 252 253 254 255 0
-256 -257 0
-256 -258 0
-256 -259 0
-256 -260 0
-257 -258 0
-257 -259 0
-257 -260 0
-258 -259 0
-258 -260 0
-259 -260 0
256 257 258 259 260 0
-261 -262 0
-261 -263 0
-261 -264 0
-261 -265 0
-262 -263 0
-262 -264 0
-262 -265 0
-263 -264 0
-263 -265 0
-264 -265 0
261 262 263 264 265 0
-266 -267 0
-266 -268 0
-266 -269 0
-266 -270 0
-267 -268 0
-267 -269 0
-267 -270 0
-268 -269 0
-268 -270 0
-269 -270 0
266 267 268 269 270 0
-271 -272 0
-271 -273 0
-271 -274 0
-271 -275 0
-272 -273 0
-272 -274 0
-272 -275 0
-273 -274 0
-273 -275 0
-274 -275 0
271 272 273 274 275 0
-276 -277 0
-276 -278 0
-276 -279 0
-276 -280 0
-277 -278 0
-277 -279 0
-277 -280 0
-278 -279 0
-278 -280 0
-279 -280 0
276 277 278 279 280 0
-281 -282 0
-281 -283 0
-281 -284 0
-281 -285 0
-282 -283 0
-282 -284 0
-282 -285 0
-283 -284 0
-283 -285 0
-284 -285 0
281 282 283 284 285 0
-286 -287 0
-286 -288 0
-286 -289 0
-286 -290 0
-287 -288 0
-287 -289 0
-287 -290 0
-288 -289 0
-288 -290 0
-289 -290 0
286 287 288 289 290 0
-291 -292 0
-291 -293 0
-291 -294 0
-291 -295 0
-292 -293 0
-292 -294 0
-292 -295 0
-293 -294 0
-293 -295 0
-294 -295 0
291 292 293 294 295 0
-296 -297 0
-296 -298 0
-296 -299 0
-296 -300 0
-297 -298 0
-297 -299 0
-297 -300 0
-298 -299 0
-298 -300 0
-299 -300 0
296 297 298 299 300 0
-301 -302 0
-301 -303 0
-301 -304 0
-301 -305 0
-302 -303 0
-302 -304 0
-302 -305 0
-303 -304 0
-303 -305 0
-304 -305 0
301 302 303 304 305 0
-306 -307 0
-306 -308 0
-306 -309 0
-306 -310 0
-307 -308 0
-307 -309 0
-307 -310 0
-308 -309 0
-308 -310 0
-309 -310 0
306 307 308 309 310 0
-311 -312 0
-311 -313 0
-311 -314 0
-311 -315 0
-312 -313 0
-312 -314 0
-312 -315 0
-313 -314 0
-313 -315 0
-314 -315 0
311 312 313 314 315 0
-316 -317 0
-316 -318 0
-316 -319 0
-316 -320 0
-317 -318 0
-317 -319 0
-317 -320 0
-318 -319 0
-318 -320 0
-319 -320 0
316 317 318 319 320 0
-321 -322 0
-321 -323 0
-321 -324 0
-321 -325 0
-322 -323 0
-322 -324 0
-322 -325 0
-323 -324 0
-323 -325 0
-324 -325 0
321 322 323 324 325 0
-326 -327 0
-326 -328 0
-326 -329 0
-326 -330 0
-327 -328 0
-327 -329 0
-327 -330 0
-328 -329 0
-328 -330 0
-329 -330 0
326 327 328 329 330 0
-331 -332 0
-331 -333 0
-331 -334 0
-331 -335 0
-332 -333 0
-332 -334 0
-332 -335 0
-333 -334 0
-333 -335 0
-334 -335 0
331 332 333 334 335 0
-336 -337 0
-336 -338 0
-336 -339 0
-336 -340 0
-337 -338 0
-337 -339 0
-337 -340 0
-338 -339 0
-338 -340 0
-339 -340 0
336 337 338 339 340 0
-341 -342 0
-341 -343 0
-341 -344 0
-341 -345 0
-342 -343 0
-342 -344 0
-342 -345 0
-343 -344 0
-343 -345 0
-344 -345 0
341 342 343 344 345 0
-346 -347 0
-346 -348 0
-346 -349 0
-346 -350 0
-347 -348 0
-347 -349 0
-347 -350 0
-348 -349 0
-348 -350 0
-349 -350 0
346 347 348 349 350 0
-351 -352 0
-351 -353 0
-351 -354 0
-351 -355 0
-352 -353 0
-352 -354 0
-352 -355 0
-353 -354 0
-353 -355 0
-354 -355 0
351 352 353 354 355 0
-356 -357 0
-356 -358 0
-356 -359 0
-356 -360 0
-357 -358 0
-357 -359 0
-357 -360 0
-358 -359 0
-358 -360 0
-359 -360 0
356 357 358 359 360 0
-361 -362 0
-361 -363 0
-361 -364 0
-361 -365 0
-362 -363 0
-362 -364 0
-362 -365 0
-363 -364 0
-363 -365 0
-364 -365 0
361 362 363 364 365 0
-366 -367 0
-366 -368 0
-366 -369 0
-366 -370 0
-367 -368 0
-367 -369 0
-367 -370 0
-368 -369 0
-368 -370 0
-369 -370 0
366 367 368 369 370 0
-371 -372 0
-371 -373 0
-371 -374 0
-371 -375 0
-372 -373 0
-372 -374 0
-372 -375 0
-373 -374 0
-373 -375 0
-374 -375 0
371 372 373 374 375 0
-376 -377 0
-376 -378 0
-376 -379 0
-376 -380 0
-377 -378 0
-377 -379 0
-377 -380 0
-378 -379 0
-378 -380 0
-379 -380 0
376 377 378 379 380 0
-381 -382 0
-381 -383 0
-381 -384 0
-381 -385 0
-382 -383 0
-382 -384 0
-382 -385 0
-383 -384 0
-383 -385 0
-384 -385 0
381 382 383 384 385 0
-386 -387 0
-386 -388 0
-386 -389 0
-386 -390 0
-387 -388 0
-387 -389 0
-387 -390 0
-388 -389 0
-388 -390 0
-389 -390 0
386 387 388 389 390 0
-391 -392 0
-391 -393 0
-391 -394 0
-391 -395 0
-392 -393 0
-392 -394 0
-392 -395 0
-393 -394 0
-393 -395 0
-394 -395 0
391 392 393 394 395 0
-396 -397 0
-396 -398 0
-396 -399 0
-396 -400 0
-397 -398 0
-397 -399 0
-397 -400 0
-398 -399 0
-398 -400 0
-399 -400 0
396 397 398 399 400 0
-401 -402 0
-401 -403 0
-401 -404 0
-401 -405 0
-402 -403 0
-402 -404 0
-402 -405 0
-403 -404 0
-403 -405 0
-404 -405 0
401 402 403 404 405 0
-406 -407 0
-406 -408 0
-406 -409 0
-406 -410 0
-407 -408 0
-407 -409 0
-407 -410 0
-408 -409 0
-408 -410 0
-409 -410 0
406 407 408 409 410 0
-411 -412 0
-411 -413 0
-411 -414 0
-411 -415 0
-412 -413 0
-412 -414 0
-412 -415 0
-413 -414 0
-413 -415 0
-414 -415 0
411 412 413 414 415 0
-416 -417 0
-416 -418 0
-416 -419 0
-416 -420 0
-417 -418 0
-417 -419 0
-417 -420 0
-418 -419 0
-418 -420 0
-419 -420 0
416 417 418 419 420 0
-421 -422 0
-421 -423 0
-421 -424 0
-421 -425 0
-422 -423 0
-422 -424 0
-422 -425 0
-423 -424 0
-423 -425 0
-424 -425 0
421 422 423 424 425 0
-426 -427 0
-426 -428 0
-426 -429 0
-426 -430 0
-427 -428 0
-427 -429 0
-427 -430 0
-428 -429 0
-428 -430 0
-429 -430 0
426 427 428 429 430 0
-431 -432 0
-431 -433 0
-431 -434 0
-431 -435 0
-432 -433 0
-432 -434 0
-432 -435 0
-433 -434 0
-433 -435 0
-434 -435 0
431 432 433 434 435 0
-436 -437 0
-436 -438 0
-436 -439 0
-436 -440 0
-437 -438 0
-437 -439 0
-437 -440 0
-438 -439 0
-438 -440 0
-439 -440 0
436 437 438 439 440 0
-441 -442 0
-441 -443 0
-441 -444 0
-441 -445 0
-442 -443 0
-442 -444 0
-442 -445 0
-443 -444 0
-443 -445 0
-444 -445 0
441 442 443 444 445 0
-446 -447 0
-446 -448 0
-446 -449 0
-446 -450 0
-447 -448 0
-447 -449 0
-447 -450 0
-448 -449 0
-448 -450 0
-449 -450 0
446 447 448 449 450 0
-451 -452 0
-451 -453 0
-451 -454 0
-451 -455 0
-452 -453 0
-452 -454 0
-452 -455 0
-453 -454 0
-453 -455 0
-454 -455 0
451 452 453 454 455 0
-456 -457 0
-456 -458 0
-456 -459 0
-456 -460 0
-457 -458 0
-457 -459 0
-457 -460 0
-458 -459 0
-458 -460 0
-459 -460 0
456 457 458 459 460 0
-461 -462 0
-461 -463 0
-461 -464 0
-461 -465 0
-462 -463 0
-462 -464 0
-462 -465 0
-463 -464 0
-463 -465 0
-464 -465 0
461 462 463 464 465 0
-466 -467 0
-466 -468 0
-466 -469 0
-466 -470 0
-467 -468 0
-467 -469 0
-467 -470 0
-468 -469 0
-468 -470 0
-469 -470 0
466 467 468 469 470 0
-471 -472 0
-471 -473 0
-471 -474 0
-471 -475 0
-472 -473 0
-472 -474 0
-472 -475 0
-473 -474 0
-473 -475 0
-474 -475 0
471 472 473 474 475 0
-476 -477 0
-476 -478 0
-476 -479 0
-476 -480 0
-477 -478 0
-477 -479 0
-477 -480 0
-478 -479 0
-478 -480 0
-479 -480 0
476 477 478 479 480 0
-481 -482 0
-481 -483 0
-481 -484 0
-481 -485 0
-482 -483 0
-482 -484 0
-482 -485 0
-483 -484 0
-483 -485 0
-484 -485 0
481 482 483 484 485 0
-486 -487 0
-486 -488 0
-486 -489 0
-486 -490 0
-487 -488 0
-487 -489 0
-487 -490 0
-488 -489 0
-488 -490 0
-489 -490 0
486 487 488 489 490 0
-491 -492 0
-491 -493 0
-491 -494 0
-491 -495 0
-492 -493 0
-492 -494 0
-492 -495 0
-493 -494 0
-493 -495 0
-494 -495 0
491 492 493 494 495 0
-496 -497 0
-496 -498 0
-496 -499 0
-496 -500 0
-497 -498 0
-497 -499 0
-497 -500 0
-498 -499 0
-498 -500 0
-499 -500 0
496 497 498 499 500 0
-26 -31 0
-27 -32 0
-28 -33 0
-29 -34 0
-30 -35 0
-26 -46 0
-27 -47 0
-28 -48 0
-29 -49 0
-30 -50 0
-36 -46 0
-37 -47 0
-38 -48 0
-39 -49 0
-40 -50 0
-81 -101 0
-82 -102 0
-83 -103 0
-84 -104 0
-85 -105 0
-101 -106 0
-102 -107 0
-103 -108 0
-104 -109 0
-105 -110 0
-111 -121 0
-112 -122 0
-113 -123 0
-114 -124 0
-115 -125 0
-121 -136 0
-122 -137 0
-123 -138 0
-124 -139 0
-125 -140 0
-126 -136 0
-127 -137 0
-128 -138 0
-129 -139 0
-130 -140 0
-146 -151 0
-147 -152 0
-148 -153 0
-149 -154 0
-150 -155 0
-146 -166 0
-147 -167 0
-148 -168 0
-149 -169 0
-150 -170 0
-161 -171 0
-162 -172 0
-163 -173 0
-164 -174 0
-165 -175 0
-171 -176 0
-172 -177 0
-173 -178 0
-174 -179 0
-175 -180 0
-206 -211 0
-207 -212 0
-208 -213 0
-209 -214 0
-210 -215 0
-216 -221 0
-217 -222 0
-218 -223 0
-219 -224 0
-220 -225 0
-216 -226 0
-217 -227 0
-218 -228 0
-219 -229 0
-220 -230 0
-256 -271 0
-257 -272 0
-258 -273 0
-259 -274 0
-260 -275 0
-271 -276 0
-272 -277 0
-273 -278 0
-274 -279 0
-275 -280 0
-286 -296 0
-287 -297 0
-288 -298 0
-289 -299 0
-290 -300 0
-296 -301 0
-297 -302 0
-298 -303 0
-299 -304 0
-300 -305 0
-301 -306 0
-302 -307 0
-303 -308 0
-304 -309 0
-305 -310 0
-306 -316 0
-307 -317 0
-308 -318 0
-309 -319 0
-310 -320 0
-306 -321 0
-307 -322 0
-308 -323 0
-309 -324 0
-310 -325 0
-326 -331 0
-327 -332 0
-328 -333 0
-329 -334 0
-330 -335 0
-336 -356 0
-337 -357 0
-338 -358 0
-339 -359 0
-340 -360 0
-346 -356 0
-347 -357 0
-348 -358 0
-349 -359 0
-350 -360 0
-351 -371 0
-352 -372 0
-353 -373 0
-354 -374 0
-355 -375 0
-376 -391 0
-377 -392 0
-378 -393 0
-379 -394 0
-380 -395 0
-386 -401 0
-387 -402 0
-388 -403 0
-389 -404 0
-390 -405 0
-401 -411 0
-402 -412 0
-403 -413 0
-404 -414 0
-405 -415 0
-411 -416 0
-412 -417 0
-413 -418 0
-414 -419 0
-415 -420 0
-416 -421 0
-417 -422 0
-418 -423 0
-419 -424 0
-420 -425 0
-416 -426 0
-417 -427 0
-418 -428 0
-419 -429 0
-420 -430 0
-426 -446 0
-427 -447 0
-428 -448 0
-429 -449 0
-430 -450 0
-451 -461 0
-452 -462 0
-453 -463 0
-454 -464 0
-455 -465 0
-451 -471 0
-452 -472 0
-453 -473 0
-454 -474 0
-455 -475 0
-461 -471 0
-462 -472 0
-463 -473 0
-464 -474 0
-465 -475 0
-466 -486 0
-467 -487 0
-468 -488 0
-469 -489 0
-470 -490 0
-1 -206 0
-2 -207 0
-3 -208 0
-4 -209 0
-5 -210 0
-1 -376 0
-2 -377 0
-3 -378 0
-4 -379 0
-5 -380 0
-6 -81 0
-7 -82 0
-8 -83 0
-9 -84 0
-10 -85 0
-6 -136 0
-7 -137 0
-8 -138 0
-9 -139 0
-10 -140 0
-6 -231 0
-7 -232 0
-8 -233 0
-9 -234 0
-10 -235 0
-6 -401 0
-7 -402 0
-8 -403 0
-9 -404 0
-10 -405 0
-6 -476 0
-7 -477 0
-8 -478 0
-9 -479 0
-10 -480 0
-11 -86 0
-12 -87 0
-13 -88 0
-14 -89 0
-15 -90 0
-11 -121 0
-12 -122 0
-13 -123 0
-14 -124 0
-15 -125 0
-11 -141 0
-12 -142 0
-13 -143 0
-14 -144 0
-15 -145 0
-11 -146 0
-12 -147 0
-13 -148 0
-14 -149 0
-15 -150 0
-11 -166 0
-12 -167 0
-13 -168 0
-14 -169 0
-15 -170 0
-11 -171 0
-12 -172 0
-13 -173 0
-14 -174 0
-15 -175 0
-11 -276 0
-12 -277 0
-13 -278 0
-14 -279 0
-15 -280 0
-11 -356 0
-12 -357 0
-13 -358 0
-14 -359 0
-15 -360 0
-11 -381 0
-12 -382 0
-13 -383 0
-14 -384 0
-15 -385 0
-16 -41 0
-17 -42 0
-18 -43 0
-19 -44 0
-20 -45 0
-16 -61 0
-17 -62 0
-18 -63 0
-19 -64 0
-20 -65 0
-16 -91 0
-17 -92 0
-18 -93 0
-19 -94 0
-20 -95 0
-16 -116 0
-17 -117 0
-18 -118 0
-19 -119 0
-20 -120 0
-16 -146 0
-17 -147 0
-18 -148 0
-19 -149 0
-20 -150 0
-16 -151 0
-17 -152 0
-18 -153 0
-19 -154 0
-20 -155 0
-16 -251 0
-17 -252 0
-18 -253 0
-19 -254 0
-20 -255 0
-16 -311 0
-17 -312 0
-18 -313 0
-19 -314 0
-20 -315 0
-16 -446 0
-17 -447 0
-18 -448 0
-19 -449 0
-20 -450 0
-21 -166 0
-22 -167 0
-23 -168 0
-24 -169 0
-25 -170 0
-21 -316 0
-22 -317 0
-23 -318 0
-24 -319 0
-25 -320 0
-21 -386 0
-22 -387 0
-23 -388 0
-24 -389 0
-25 -390 0
-21 -431 0
-22 -432 0
-23 -433 0
-24 -434 0
-25 -435 0
-26 -216 0
-27 -217 0
-28 -218 0
-29 -219 0
-30 -220 0
-26 -256 0
-27 -257 0
-28 -258 0
-29 -259 0
-30 -260 0
-26 -316 0
-27 -317 0
-28 -318 0
-29 -319 0
-30 -320 0
-26 -361 0
-27 -362 0
-28 -363 0
-29 -364 0
-30 -365 0
-26 -376 0
-27 -377 0
-28 -378 0
-29 -379 0
-30 -380 0
-26 -421 0
-27 -422 0
-28 -423 0
-29 -424 0
-30 -425 0
-26 -486 0
-27 -487 0
-28 -488 0
-29 -489 0
-30 -490 0
-31 -81 0
-32 -82 0
-33 -83 0
-34 -84 0
-35 -85 0
-31 -96 0
-32 -97 0
-33 -98 0
-34 -99 0
-35 -100 0
-31 -161 0
-32 -162 0
-33 -163 0
-34 -164 0
-35 -165 0
-31 -166 0
-32 -167 0
-33 -168 0
-34 -169 0
-35 -170 0
-31 -171 0
-32 -172 0
-33 -173 0
-34 -174 0
-35 -175 0
-31 -181 0
-32 -182 0
-33 -183 0
-34 -184 0
-35 -185 0
-31 -231 0
-32 -232 0
-33 -233 0
-34 -234 0
-35 -235 0
-31 -241 0
-32 -242 0
-33 -243 0
-34 -244 0
-35 -245 0
-31 -316 0
-32 -317 0
-33 -318 0
-34 -319 0
-35 -320 0
-31 -351 0
-32 -352 0
-33 -353 0
-34 -354 0
-35 -355 0
-31 -401 0
-32 -402 0
-33 -403 0
-34 -404 0
-35 -405 0
-31 -421 0
-32 -422 0
-33 -423 0
-34 -424 0
-35 -425 0
-31 -426 0
-32 -427 0
-33 -428 0
-34 -429 0
-35 -430 0
-31 -451 0
-32 -452 0
-33 -453 0
-34 -454 0
-35 -455 0
-31 -471 0
-32 -472 0
-33 -473 0
-34 -474 0
-35 -475 0
-36 -106 0
-37 -107 0
-38 -108 0
-39 -109 0
-40 -110 0
-36 -176 0
-37 -177 0
-38 -178 0
-39 -179 0
-40 -180 0
-36 -221 0
-37 -222 0
-38 -223 0
-39 -224 0
-40 -225 0
-36 -326 0
-37 -327 0
-38 -328 0
-39 -329 0
-40 -330 0
-36 -496 0
-37 -497 0
-38 -498 0
-39 -499 0
-40 -500 0
-41 -91 0
-42 -92 0
-43 -93 0
-44 -94 0
-45 -95 0
-41 -111 0
-42 -112 0
-43 -113 0
-44 -114 0
-45 -115 0
-41 -461 0
-42 -462 0
-43 -463 0
-44 -464 0
-45 -465 0
-41 -481 0
-42 -482 0
-43 -483 0
-44 -484 0
-45 -485 0
-46 -76 0
-47 -77 0
-48 -78 0
-49 -79 0
-50 -80 0
-46 -81 0
-47 -82 0
-48 -83 0
-49 -84 0
-50 -85 0
-46 -496 0
-47 -497 0
-48 -498 0
-49 -499 0
-50 -500 0
-51 -146 0
-52 -147 0
-53 -148 0
-54 -149 0
-55 -150 0
-51 -481 0
-52 -482 0
-53 -483 0
-54 -484 0
-55 -485 0
-51 -486 0
-52 -487 0
-53 -488 0
-54 -489 0
-55 -490 0
-56 -126 0
-57 -127 0
-58 -128 0
-59 -129 0
-60 -130 0
-56 -136 0
-57 -137 0
-58 -138 0
-59 -139 0
-60 -140 0
-56 -276 0
-57 -277 0
-58 -278 0
-59 -279 0
-60 -280 0
-56 -491 0
-57 -492 0
-58 -493 0
-59 -494 0
-60 -495 0
-61 -91 0
-62 -92 0
-63 -93 0
-64 -94 0
-65 -95 0
-61 -141 0
-62 -142 0
-63 -143 0
-64 -144 0
-65 -145 0
-61 -201 0
-62 -202 0
-63 -203 0
-64 -204 0
-65 -205 0
-61 -231 0
-62 -232 0
-63 -233 0
-64 -234 0
-65 -235 0
-61 -271 0
-62 -272 0
-63 -273 0
-64 -274 0
-65 -275 0
-61 -311 0
-62 -312 0
-63 -313 0
-64 -314 0
-65 -315 0
-61 -341 0
-62 -342 0
-63 -343 0
-64 -344 0
-65 -345 0
-61 -376 0
-62 -377 0
-63 -378 0
-64 -379 0
-65 -380 0
-61 -401 0
-62 -402 0
-63 -403 0
-64 -404 0
-65 -405 0
-66 -96 0
-67 -97 0
-68 -98 0
-69 -99 0
-70 -100 0
-66 -316 0
-67 -317 0
-68 -318 0
-69 -319 0
-70 -320 0
-66 -481 0
-67 -482 0
-68 -483 0
-69 -484 0
-70 -485 0
-71 -226 0
-72 -227 0
-73 -228 0
-74 -229 0
-75 -230 0
-71 -231 0
-72 -232 0
-73 -233 0
-74 -234 0
-75 -235 0
-71 -276 0
-72 -277 0
-73 -278 0
-74 -279 0
-75 -280 0
-71 -356 0
-72 -357 0
-73 -358 0
-74 -359 0
-75 -360 0
-71 -411 0
-72 -412 0
-73 -413 0
-74 -414 0
-75 -415 0
-71 -431 0
-72 -432 0
-73 -433 0
-74 -434 0
-75 -435 0
-71 -456 0
-72 -457 0
-73 -458 0
-74 -459 0
-75 -460 0
-76 -121 0
-77 -122 0
-78 -123 0
-79 -124 0
-80 -125 0
-76 -231 0
-77 -232 0
-78 -233 0
-79 -234 0
-80 -235 0
-76 -296 0
-77 -297 0
-78 -298 0
-79 -299 0
-80 -300 0
-76 -316 0
-77 -317 0
-78 -318 0
-79 -319 0
-80 -320 0
-76 -461 0
-77 -462 0
-78 -463 0
-79 -464 0
-80 -465 0
-76 -466 0
-77 -467 0
-78 -468 0
-79 -469 0
-80 -470 0
-81 -151 0
-82 -152 0
-83 -153 0
-84 -154 0
-85 -155 0
-81 -191 0
-82 -192 0
-83 -193 0
-84 -194 0
-85 -195 0
-81 -261 0
-82 -262 0
-83 -263 0
-84 -264 0
-85 -265 0
-81 -301 0
-82 -302 0
-83 -303 0
-84 -304 0
-85 -305 0
-81 -336 0
-82 -337 0
-83 -338 0
-84 -339 0
-85 -340 0
-81 -356 0
-82 -357 0
-83 -358 0
-84 -359 0
-85 -360 0
-81 -401 0
-82 -402 0
-83 -403 0
-84 -404 0
-85 -405 0
-81 -411 0
-82 -412 0
-83 -413 0
-84 -414 0
-85 -415 0
-81 -431 0
-82 -432 0
-83 -433 0
-84 -434 0
-85 -435 0
-81 -461 0
-82 -462 0
-83 -463 0
-84 -464 0
-85 -465 0
-86 -186 0
-87 -187 0
-88 -188 0
-89 -189 0
-90 -190 0
-86 -206 0
-87 -207 0
-88 -208 0
-89 -209 0
-90 -210 0
-86 -236 0
-87 -237 0
-88 -238 0
-89 -239 0
-90 -240 0
-86 -246 0
-87 -247 0
-88 -248 0
-89 -249 0
-90 -250 0
-86 -266 0
-87 -267 0
-88 -268 0
-89 -269 0
-90 -270 0
-86 -341 0
-87 -342 0
-88 -343 0
-89 -344 0
-90 -345 0
-86 -426 0
-87 -427 0
-88 -428 0
-89 -429 0
-90 -430 0
-86 -431 0
-87 -432 0
-88 -433 0
-89 -434 0
-90 -435 0
-91 -131 0
-92 -132 0
-93 -133 0
-94 -134 0
-95 -135 0
-91 -186 0
-92 -187 0
-93 -188 0
-94 -189 0
-95 -190 0
-91 -201 0
-92 -202 0
-93 -203 0
-94 -204 0
-95 -205 0
-91 -216 0
-92 -217 0
-93 -218 0
-94 -219 0
-95 -220 0
-91 -291 0
-92 -292 0
-93 -293 0
-94 -294 0
-95 -295 0
-91 -406 0
-92 -407 0
-93 -408 0
-94 -409 0
-95 -410 0
-91 -431 0
-92 -432 0
-93 -433 0
-94 -434 0
-95 -435 0
-91 -456 0
-92 -457 0
-93 -458 0
-94 -459 0
-95 -460 0
-91 -461 0
-92 -462 0
-93 -463 0
-94 -464 0
-95 -465 0
-96 -191 0
-97 -192 0
-98 -193 0
-99 -194 0
-100 -195 0
-96 -266 0
-97 -267 0
-98 -268 0
-99 -269 0
-100 -270 0
-96 -271 0
-97 -272 0
-98 -273 0
-99 -274 0
-100 -275 0
-96 -281 0
-97 -282 0
-98 -283 0
-99 -284 0
-100 -285 0
-96 -311 0
-97 -312 0
-98 -313 0
-99 -314 0
-100 -315 0
-96 -381 0
-97 -382 0
-98 -383 0
-99 -384 0
-100 -385 0
-96 -421 0
-97 -422 0
-98 -423 0
-99 -424 0
-100 -425 0
-101 -191 0
-102 -192 0
-103 -193 0
-104 -194 0
-105 -195 0
-101 -221 0
-102 -222 0
-103 -223 0
-104 -224 0
-105 -225 0
-101 -246 0
-102 -247 0
-103 -248 0
-104 -249 0
-105 -250 0
-101 -446 0
-102 -447 0
-103 -448 0
-104 -449 0
-105 -450 0
-106 -146 0
-107 -147 0
-108 -148 0
-109 -149 0
-110 -150 0
-106 -221 0
-107 -222 0
-108 -223 0
-109 -224 0
-110 -225 0
-106 -226 0
-107 -227 0
-108 -228 0
-109 -229 0
-110 -230 0
-106 -261 0
-107 -262 0
-108 -263 0
-109 -264 0
-110 -265 0
-106 -361 0
-107 -362 0
-108 -363 0
-109 -364 0
-110 -365 0
-106 -416 0
-107 -417 0
-108 -418 0
-109 -419 0
-110 -420 0
-106 -436 0
-107 -437 0
-108 -438 0
-109 -439 0
-110 -440 0
-106 -486 0
-107 -487 0
-108 -488 0
-109 -489 0
-110 -490 0
-106 -491 0
-107 -492 0
-108 -493 0
-109 -494 0
-110 -495 0
-111 -141 0
-112 -142 0
-113 -143 0
-114 -144 0
-115 -145 0
-111 -146 0
-112 -147 0
-113 -148 0
-114 -149 0
-115 -150 0
-111 -176 0
-112 -177 0
-113 -178 0
-114 -179 0
-115 -180 0
-111 -281 0
-112 -282 0
-113 -283 0
-114 -284 0
-115 -285 0
-111 -296 0
-112 -297 0
-113 -298 0
-114 -299 0
-115 -300 0
-111 -316 0
-112 -317 0
-113 -318 0
-114 -319 0
-115 -320 0
-111 -471 0
-112 -472 0
-113 -473 0
-114 -474 0
-115 -475 0
-111 -481 0
-112 -482 0
-113 -483 0
-114 -484 0
-115 -485 0
-116 -256 0
-117 -257 0
-118 -258 0
-119 -259 0
-120 -260 0
-116 -261 0
-117 -262 0
-118 -263 0
-119 -264 0
-120 -265 0
-116 -301 0
-117 -302 0
-118 -303 0
-119 -304 0
-120 -305 0
-116 -491 0
-117 -492 0
-118 -493 0
-119 -494 0
-120 -495 0
-121 -161 0
-122 -162 0
-123 -163 0
-124 -164 0
-125 -165 0
-121 -166 0
-122 -167 0
-123 -168 0
-124 -169 0
-125 -170 0
-121 -191 0
-122 -192 0
-123 -193 0
-124 -194 0
-125 -195 0
-121 -266 0
-122 -267 0
-123 -268 0
-124 -269 0
-125 -270 0
-121 -356 0
-122 -357 0
-123 -358 0
-124 -359 0
-125 -360 0
-121 -456 0
-122 -457 0
-123 -458 0
-124 -459 0
-125 -460 0
-121 -496 0
-122 -497 0
-123 -498 0
-124 -499 0
-125 -500 0
-126 -166 0
-127 -167 0
-128 -168 0
-129 -169 0
-130 -170 0
-126 -276 0
-127 -277 0
-128 -278 0
-129 -279 0
-130 -280 0
-126 -391 0
-127 -392 0
-128 -393 0
-129 -394 0
-130 -395 0
-126 -451 0
-127 -452 0
-128 -453 0
-129 -454 0
-130 -455 0
-131 -201 0
-132 -202 0
-133 -203 0
-134 -204 0
-135 -205 0
-131 -261 0
-132 -262 0
-133 -263 0
-134 -264 0
-135 -265 0
-131 -326 0
-132 -327 0
-133 -328 0
-134 -329 0
-135 -330 0
-131 -366 0
-132 -367 0
-133 -368 0
-134 -369 0
-135 -370 0
-131 -471 0
-132 -472 0
-133 -473 0
-134 -474 0
-135 -475 0
-136 -211 0
-137 -212 0
-138 -213 0
-139 -214 0
-140 -215 0
-136 -226 0
-137 -227 0
-138 -228 0
-139 -229 0
-140 -230 0
-136 -231 0
-137 -232 0
-138 -233 0
-139 -234 0
-140 -235 0
-136 -366 0
-137 -367 0
-138 -368 0
-139 -369 0
-140 -370 0
-136 -391 0
-137 -392 0
-138 -393 0
-139 -394 0
-140 -395 0
-136 -421 0
-137 -422 0
-138 -423 0
-139 -424 0
-140 -425 0
-141 -261 0
-142 -262 0
-143 -263 0
-144 -264 0
-145 -265 0
-141 -266 0
-142 -267 0
-143 -268 0
-144 -269 0
-145 -270 0
-141 -426 0
-142 -427 0
-143 -428 0
-144 -429 0
-145 -430 0
-146 -201 0
-147 -202 0
-148 -203 0
-149 -204 0
-150 -205 0
-146 -246 0
-147 -247 0
-148 -248 0
-149 -249 0
-150 -250 0
-146 -356 0
-147 -357 0
-148 -358 0
-149 -359 0
-150 -360 0
-146 -451 0
-147 -452 0
-148 -453 0
-149 -454 0
-150 -455 0
-146 -476 0
-147 -477 0
-148 -478 0
-149 -479 0
-150 -480 0
-151 -201 0
-152 -202 0
-153 -203 0
-154 -204 0
-155 -205 0
-151 -251 0
-152 -252 0
-153 -253 0
-154 -254 0
-155 -255 0
-151 -321 0
-152 -322 0
-153 -323 0
-154 -324 0
-155 -325 0
-151 -356 0
-152 -357 0
-153 -358 0
-154 -359 0
-155 -360 0
-151 -406 0
-152 -407 0
-153 -408 0
-154 -409 0
-155 -410 0
-151 -456 0
-152 -457 0
-153 -458 0
-154 -459 0
-155 -460 0
-156 -286 0
-157 -287 0
-158 -288 0
-159 -289 0
-160 -290 0
-156 -366 0
-157 -367 0
-158 -368 0
-159 -369 0
-160 -370 0
-156 -381 0
-157 -382 0
-158 -383 0
-159 -384 0
-160 -385 0
-161 -261 0
-162 -262 0
-163 -263 0
-164 -264 0
-165 -265 0
-161 -331 0
-162 -332 0
-163 -333 0
-164 -334 0
-165 -335 0
-161 -486 0
-162 -487 0
-163 -488 0
-164 -489 0
-165 -490 0
-166 -331 0
-167 -332 0
-168 -333 0
-169 -334 0
-170 -335 0
-166 -376 0
-167 -377 0
-168 -378 0
-169 -379 0
-170 -380 0
-166 -446 0
-167 -447 0
-168 -448 0
-169 -449 0
-170 -450 0
-171 -396 0
-172 -397 0
-173 -398 0
-174 -399 0
-175 -400 0
-171 -431 0
-172 -432 0
-173 -433 0
-174 -434 0
-175 -435 0
-171 -491 0
-172 -492 0
-173 -493 0
-174 -494 0
-175 -495 0
-176 -301 0
-177 -302 0
-178 -303 0
-179 -304 0
-180 -305 0
-176 -331 0
-177 -332 0
-178 -333 0
-179 -334 0
-180 -335 0
-176 -461 0
-177 -462 0
-178 -463 0
-179 -464 0
-180 -465 0
-176 -476 0
-177 -477 0
-178 -478 0
-179 -479 0
-180 -480 0
-181 -351 0
-182 -352 0
-183 -353 0
-184 -354 0
-185 -355 0
-181 -386 0
-182 -387 0
-183 -388 0
-184 -389 0
-185 -390 0
-186 -276 0
-187 -277 0
-188 -278 0
-189 -279 0
-190 -280 0
-186 -326 0
-187 -327 0
-188 -328 0
-189 -329 0
-190 -330 0
-186 -416 0
-187 -417 0
-188 -418 0
-189 -419 0
-190 -420 0
-191 -281 0
-192 -282 0
-193 -283 0
-194 -284 0
-195 -285 0
-191 -391 0
-192 -392 0
-193 -393 0
-194 -394 0
-195 -395 0
-191 -446 0
-192 -447 0
-193 -448 0
-194 -449 0
-195 -450 0
-191 -466 0
-192 -467 0
-193 -468 0
-194 -469 0
-195 -470 0
-196 -286 0
-197 -287 0
-198 -288 0
-199 -289 0
-200 -290 0
-196 -391 0
-197 -392 0
-198 -393 0
-199 -394 0
-200 -395 0
-196 -426 0
-197 -427 0
-198 -428 0
-199 -429 0
-200 -430 0
-201 -246 0
-202 -247 0
-203 -248 0
-204 -249 0
-205 -250 0
-201 -251 0
-202 -252 0
-203 -253 0
-204 -254 0
-205 -255 0
-201 -261 0
-202 -262 0
-203 -263 0
-204 -264 0
-205 -265 0
-201 -306 0
-202 -307 0
-203 -308 0
-204 -309 0
-205 -310 0
-201 -411 0
-202 -412 0
-203 -413 0
-204 -414 0
-205 -415 0
-201 -441 0
-202 -442 0
-203 -443 0
-204 -444 0
-205 -445 0
-201 -446 0
-202 -447 0
-203 -448 0
-204 -449 0
-205 -450 0
-206 -326 0
-207 -327 0
-208 -328 0
-209 -329 0
-210 -330 0
-206 -431 0
-207 -432 0
-208 -433 0
-209 -434 0
-210 -435 0
-206 -441 0
-207 -442 0
-208 -443 0
-209 -444 0
-210 -445 0
-206 -466 0
-207 -467 0
-208 -468 0
-209 -469 0
-210 -470 0
-211 -246 0
-212 -247 0
-213 -248 0
-214 -249 0
-215 -250 0
-211 -336 0
-212 -337 0
-213 -338 0
-214 -339 0
-215 -340 0
-211 -346 0
-212 -347 0
-213 -348 0
-214 -349 0
-215 -350 0
-211 -366 0
-212 -367 0
-213 -368 0
-214 -369 0
-215 -370 0
-211 -411 0
-212 -412 0
-213 -413 0
-214 -414 0
-215 -415 0
-211 -421 0
-212 -422 0
-213 -423 0
-214 -424 0
-215 -425 0
-211 -461 0
-212 -462 0
-213 -463 0
-214 -464 0
-215 -465 0
-211 -476 0
-212 -477 0
-213 -478 0
-214 -479 0
-215 -480 0
-216 -251 0
-217 -252 0
-218 -253 0
-219 -254 0
-220 -255 0
-216 -321 0
-217 -322 0
-218 -323 0
-219 -324 0
-220 -325 0
-216 -436 0
-217 -437 0
-218 -438 0
-219 -439 0
-220 -440 0
-216 -461 0
-217 -462 0
-218 -463 0
-219 -464 0
-220 -465 0
-216 -486 0
-217 -487 0
-218 -488 0
-219 -489 0
-220 -490 0
-221 -256 0
-222 -257 0
-223 -258 0
-224 -259 0
-225 -260 0
-221 -311 0
-222 -312 0
-223 -313 0
-224 -314 0
-225 -315 0
-221 -326 0
-222 -327 0
-223 -328 0
-224 -329 0
-225 -330 0
-221 -396 0
-222 -397 0
-223 -398 0
-224 -399 0
-225 -400 0
-221 -491 0
-222 -492 0
-223 -493 0
-224 -494 0
-225 -495 0
-226 -286 0
-227 -287 0
-228 -288 0
-229 -289 0
-230 -290 0
-226 -296 0
-227 -297 0
-228 -298 0
-229 -299 0
-230 -300 0
-231 -276 0
-232 -277 0
-233 -278 0
-234 -279 0
-235 -280 0
-231 -311 0
-232 -312 0
-233 -313 0
-234 -314 0
-235 -315 0
-231 -366 0
-232 -367 0
-233 -368 0
-234 -369 0
-235 -370 0
-231 -376 0
-232 -377 0
-233 -378 0
-234 -379 0
-235 -380 0
-231 -396 0
-232 -397 0
-233 -398 0
-234 -399 0
-235 -400 0
-231 -401 0
-232 -402 0
-233 -403 0
-234 -404 0
-235 -405 0
-231 -411 0
-232 -412 0
-233 -413 0
-234 -414 0
-235 -415 0
-236 -316 0
-237 -317 0
-238 -318 0
-239 -319 0
-240 -320 0
-236 -401 0
-237 -402 0
-238 -403 0
-239 -404 0
-240 -405 0
-236 -431 0
-237 -432 0
-238 -433 0
-239 -434 0
-240 -435 0
-241 -361 0
-242 -362 0
-243 -363 0
-244 -364 0
-245 -365 0
-241 -426 0
-242 -427 0
-243 -428 0
-244 -429 0
-245 -430 0
-241 -466 0
-242 -467 0
-243 -468 0
-244 -469 0
-245 -470 0
-246 -281 0
-247 -282 0
-248 -283 0
-249 -284 0
-250 -285 0
-246 -456 0
-247 -457 0
-248 -458 0
-249 -459 0
-250 -460 0
-251 -386 0
-252 -387 0
-253 -388 0
-254 -389 0
-255 -390 0
-251 -416 0
-252 -417 0
-253 -418 0
-254 -419 0
-255 -420 0
-251 -451 0
-252 -452 0
-253 -453 0
-254 -454 0
-255 -455 0
-256 -386 0
-257 -387 0
-258 -388 0
-259 -389 0
-260 -390 0
-256 -421 0
-257 -422 0
-258 -423 0
-259 -424 0
-260 -425 0
-256 -456 0
-257 -457 0
-258 -458 0
-259 -459 0
-260 -460 0
-261 -346 0
-262 -347 0
-263 -348 0
-264 -349 0
-265 -350 0
-261 -351 0
-262 -352 0
-263 -353 0
-264 -354 0
-265 -355 0
-261 -391 0
-262 -392 0
-263 -393 0
-264 -394 0
-265 -395 0
-261 -406 0
-262 -407 0
-263 -408 0
-264 -409 0
-265 -410 0
-261 -436 0
-262 -437 0
-263 -438 0
-264 -439 0
-265 -440 0
-261 -486 0
-262 -487 0
-263 -488 0
-264 -489 0
-265 -490 0
-266 -311 0
-267 -312 0
-268 -313 0
-269 -314 0
-270 -315 0
-266 -411 0
-267 -412 0
-268 -413 0
-269 -414 0
-270 -415 0
-266 -416 0
-267 -417 0
-268 -418 0
-269 -419 0
-270 -420 0
-266 -421 0
-267 -422 0
-268 -423 0
-269 -424 0
-270 -425 0
-266 -481 0
-267 -482 0
-268 -483 0
-269 -484 0
-270 -485 0
-271 -396 0
-272 -397 0
-273 -398 0
-274 -399 0
-275 -400 0
-271 -446 0
-272 -447 0
-273 -448 0
-274 -449 0
-275 -450 0
-276 -396 0
-277 -397 0
-278 -398 0
-279 -399 0
-280 -400 0
-276 -411 0
-277 -412 0
-278 -413 0
-279 -414 0
-280 -415 0
-276 -431 0
-277 -432 0
-278 -433 0
-279 -434 0
-280 -435 0
-281 -381 0
-282 -382 0
-283 -383 0
-284 -384 0
-285 -385 0
-281 -391 0
-282 -392 0
-283 -393 0
-284 -394 0
-285 -395 0
-281 -411 0
-282 -412 0
-283 -413 0
-284 -414 0
-285 -415 0
-281 -456 0
-282 -457 0
-283 -458 0
-284 -459 0
-285 -460 0
-286 -321 0
-287 -322 0
-288 -323 0
-289 -324 0
-290 -325 0
-286 -386 0
-287 -387 0
-288 -388 0
-289 -389 0
-290 -390 0
-286 -406 0
-287 -407 0
-288 -408 0
-289 -409 0
-290 -410 0
-286 -431 0
-287 -432 0
-288 -433 0
-289 -434 0
-290 -435 0
-286 -486 0
-287 -487 0
-288 -488 0
-289 -489 0
-290 -490 0
-291 -381 0
-292 -382 0
-293 -383 0
-294 -384 0
-295 -385 0
-291 -396 0
-292 -397 0
-293 -398 0
-294 -399 0
-295 -400 0
-291 -411 0
-292 -412 0
-293 -413 0
-294 -414 0
-295 -415 0
-291 -451 0
-292 -452 0
-293 -453 0
-294 -454 0
-295 -455 0
-296 -381 0
-297 -382 0
-298 -383 0
-299 -384 0
-300 -385 0
-296 -391 0
-297 -392 0
-298 -393 0
-299 -394 0
-300 -395 0
-296 -426 0
-297 -427 0
-298 -428 0
-299 -429 0
-300 -430 0
-301 -341 0
-302 -342 0
-303 -343 0
-304 -344 0
-305 -345 0
-301 -351 0
-302 -352 0
-303 -353 0
-304 -354 0
-305 -355 0
-306 -396 0
-307 -397 0
-308 -398 0
-309 -399 0
-310 -400 0
-306 -471 0
-307 -472 0
-308 -473 0
-309 -474 0
-310 -475 0
-311 -386 0
-312 -387 0
-313 -388 0
-314 -389 0
-315 -390 0
-311 -406 0
-312 -407 0
-313 -408 0
-314 -409 0
-315 -410 0
-316 -341 0
-317 -342 0
-318 -343 0
-319 -344 0
-320 -345 0
-316 -421 0
-317 -422 0
-318 -423 0
-319 -424 0
-320 -425 0
-316 -446 0
-317 -447 0
-318 -448 0
-319 -449 0
-320 -450 0
-321 -386 0
-322 -387 0
-323 -388 0
-324 -389 0
-325 -390 0
-321 -481 0
-322 -482 0
-323 -483 0
-324 -484 0
-325 -485 0
-321 -486 0
-322 -487 0
-323 -488 0
-324 -489 0
-325 -490 0
-326 -466 0
-327 -467 0
-328 -468 0
-329 -469 0
-330 -470 0
-331 -361 0
-332 -362 0
-333 -363 0
-334 -364 0
-335 -365 0
-331 -391 0
-332 -392 0
-333 -393 0
-334 -394 0
-335 -395 0
-331 -461 0
-332 -462 0
-333 -463 0
-334 -464 0
-335 -465 0
-336 -406 0
-337 -407 0
-338 -408 0
-339 -409 0
-340 -410 0
-336 -436 0
-337 -437 0
-338 -438 0
-339 -439 0
-340 -440 0
-336 -471 0
-337 -472 0
-338 -473 0
-339 -474 0
-340 -475 0
-341 -381 0
-342 -382 0
-343 -383 0
-344 -384 0
-345 -385 0
-341 -411 0
-342 -412 0
-343 -413 0
-344 -414 0
-345 -415 0
-341 -416 0
-342 -417 0
-343 -418 0
-344 -419 0
-345 -420 0
-346 -376 0
-347 -377 0
-348 -378 0
-349 -379 0
-350 -380 0
-346 -386 0
-347 -387 0
-348 -388 0
-349 -389 0
-350 -390 0
-346 -401 0
-347 -402 0
-348 -403 0
-349 -404 0
-350 -405 0
-346 -491 0
-347 -492 0
-348 -493 0
-349 -494 0
-350 -495 0
-356 -391 0
-357 -392 0
-358 -393 0
-359 -394 0
-360 -395 0
-356 -416 0
-357 -417 0
-358 -418 0
-359 -419 0
-360 -420 0
-356 -421 0
-357 -422 0
-358 -423 0
-359 -424 0
-360 -425 0
-356 -446 0
-357 -447 0
-358 -448 0
-359 -449 0
-360 -450 0
-361 -396 0
-362 -397 0
-363 -398 0
-364 -399 0
-365 -400 0
-361 -416 0
-362 -417 0
-363 -418 0
-364 -419 0
-365 -420 0
-361 -436 0
-362 -437 0
-363 -438 0
-364 -439 0
-365 -440 0
-361 -441 0
-362 -442 0
-363 -443 0
-364 -444 0
-365 -445 0
-361 -481 0
-362 -482 0
-363 -483 0
-364 -484 0
-365 -485 0
-366 -456 0
-367 -457 0
-368 -458 0
-369 -459 0
-370 -460 0
-366 -491 0
-367 -492 0
-368 -493 0
-369 -494 0
-370 -495 0
-371 -396 0
-372 -397 0
-373 -398 0
-374 -399 0
-375 -400 0
-371 -401 0
-372 -402 0
-373 -403 0
-374 -404 0
-375 -405 0
-371 -426 0
-372 -427 0
-373 -428 0
-374 -429 0
-375 -430 0
-371 -431 0
-372 -432 0
-373 -433 0
-374 -434 0
-375 -435 0
-376 -416 0
-377 -417 0
-378 -418 0
-379 -419 0
-380 -420 0
-376 -466 0
-377 -467 0
-378 -468 0
-379 -469 0
-380 -470 0
-381 -471 0
-382 -472 0
-383 -473 0
-384 -474 0
-385 -475 0
-386 -426 0
-387 -427 0
-388 -428 0
-389 -429 0
-390 -430 0
-386 -436 0
-387 -437 0
-388 -438 0
-389 -439 0
-390 -440 0
-386 -456 0
-387 -457 0
-388 -458 0
-389 -459 0
-390 -460 0
-391 -431 0
-392 -432 0
-393 -433 0
-394 -434 0
-395 -435 0
-396 -421 0
-397 -422 0
-398 -423 0
-399 -424 0
-400 -425 0
-396 -486 0
-397 -487 0
-398 -488 0
-399 -489 0
-400 -490 0
-401 -436 0
-402 -437 0
-403 -438 0
-404 -439 0
-405 -440 0
-406 -466 0
-407 -467 0
-408 -468 0
-409 -469 0
-410 -470 0
-406 -476 0
-407 -477 0
-408 -478 0
-409 -479 0
-410 -480 0
-416 -451 0
-417 -452 0
-418 -453 0
-419 -454 0
-420 -455 0
-416 -491 0
-417 -492 0
-418 -493 0
-419 -494 0
-420 -495 0
-421 -466 0
-422 -467 0
-423 -468 0
-424 -469 0
-425 -470 0
-426 -451 0
-427 -452 0
-428 -453 0
-429 -454 0
-430 -455 0
-426 -466 0
-427 -467 0
-428 -468 0
-429 -469 0
-430 -470 0
-431 -466 0
-432 -467 0
-433 -468 0
-434 -469 0
-435 -470 0
-431 -496 0
-432 -497 0
-433 -498 0
-434 -499 0
-435 -500 0
-471 -496 0
-472 -497 0
-473 -498 0
-474 -499 0
-475 -500 0
